Welcome to the CBC MILP Solver 
Version: 2.10.12 
Build Date: Aug 20 2024 

command line - /opt/homebrew/bin/cbc computational_data/lp/ER_n20_p035_s1.lp seconds 10.0 solve solu computational_data/solutions/ER_n20_p035_s1.sol (default strategy 1)
seconds was changed from 1e+100 to 10
Continuous objective value is 5.08046 - 0.00 seconds
Cgl0003I 0 fixed, 0 tightened bounds, 57 strengthened rows, 0 substitutions
Cgl0003I 0 fixed, 0 tightened bounds, 67 strengthened rows, 0 substitutions
Cgl0003I 0 fixed, 0 tightened bounds, 34 strengthened rows, 0 substitutions
Cgl0003I 0 fixed, 0 tightened bounds, 13 strengthened rows, 0 substitutions
Cgl0003I 0 fixed, 0 tightened bounds, 3 strengthened rows, 0 substitutions
Cgl0004I processed model has 138 rows, 40 columns (40 integer (40 of which binary)) and 661 elements
Cutoff increment increased from 1e-05 to 0.9999
Cbc0038I Initial state - 22 integers unsatisfied sum - 5.08046
Cbc0038I Pass   1: suminf.    5.08046 (22) obj. 5.08046 iterations 1
Cbc0038I Pass   2: suminf.    8.00000 (16) obj. 8 iterations 34
Cbc0038I Pass   3: suminf.    9.50000 (19) obj. 9.5 iterations 25
Cbc0038I Pass   4: suminf.    5.50000 (11) obj. 8.5 iterations 36
Cbc0038I Pass   5: suminf.    3.75000 (14) obj. 7 iterations 30
Cbc0038I Pass   6: suminf.    3.50000 (15) obj. 7.07143 iterations 11
Cbc0038I Pass   7: suminf.    0.00000 (0) obj. 9 iterations 33
Cbc0038I Solution found of 9
Cbc0038I Before mini branch and bound, 7 integers at bound fixed and 0 continuous
Cbc0038I Full problem 138 rows 40 columns, reduced to 119 rows 33 columns
Cbc0038I Mini branch and bound improved solution from 9 to 7 (0.02 seconds)
Cbc0038I Round again with cutoff of 5.90814
Cbc0038I Pass   8: suminf.    5.08046 (22) obj. 5.08046 iterations 0
Cbc0038I Pass   9: suminf.    5.63254 (15) obj. 5.90814 iterations 32
Cbc0038I Pass  10: suminf.    2.27559 (18) obj. 5.90814 iterations 27
Cbc0038I Pass  11: suminf.    2.23885 (18) obj. 5.90814 iterations 2
Cbc0038I Pass  12: suminf.    3.68373 (12) obj. 5.90814 iterations 35
Cbc0038I Pass  13: suminf.    2.23885 (17) obj. 5.90814 iterations 22
Cbc0038I Pass  14: suminf.    5.11898 (19) obj. 5.90814 iterations 18
Cbc0038I Pass  15: suminf.    2.60203 (20) obj. 5.90814 iterations 24
Cbc0038I Pass  16: suminf.    2.56124 (20) obj. 5.90814 iterations 6
Cbc0038I Pass  17: suminf.    5.71420 (20) obj. 5.90814 iterations 43
Cbc0038I Pass  18: suminf.    4.02297 (17) obj. 5.90814 iterations 30
Cbc0038I Pass  19: suminf.    3.43792 (20) obj. 5.90814 iterations 13
Cbc0038I Pass  20: suminf.    3.14677 (19) obj. 5.90814 iterations 7
Cbc0038I Pass  21: suminf.    3.09186 (17) obj. 5.90814 iterations 7
Cbc0038I Pass  22: suminf.    5.87868 (22) obj. 5.90814 iterations 20
Cbc0038I Pass  23: suminf.    4.39241 (21) obj. 5.58228 iterations 26
Cbc0038I Pass  24: suminf.    4.00000 (20) obj. 5.70769 iterations 11
Cbc0038I Pass  25: suminf.    3.15612 (17) obj. 5.90814 iterations 11
Cbc0038I Pass  26: suminf.    3.09186 (16) obj. 5.90814 iterations 10
Cbc0038I Pass  27: suminf.    5.27887 (21) obj. 5.90814 iterations 39
Cbc0038I Pass  28: suminf.    4.40000 (18) obj. 5.53333 iterations 16
Cbc0038I Pass  29: suminf.    3.62117 (17) obj. 5.90814 iterations 18
Cbc0038I Pass  30: suminf.    3.43485 (18) obj. 5.90814 iterations 14
Cbc0038I Pass  31: suminf.    4.95137 (19) obj. 5.90814 iterations 17
Cbc0038I Pass  32: suminf.    3.18373 (18) obj. 5.90814 iterations 22
Cbc0038I Pass  33: suminf.    3.11950 (15) obj. 5.90814 iterations 4
Cbc0038I Pass  34: suminf.    4.56693 (20) obj. 5.90814 iterations 27
Cbc0038I Pass  35: suminf.    4.09186 (17) obj. 5.90814 iterations 18
Cbc0038I Pass  36: suminf.    4.01947 (19) obj. 5.90814 iterations 9
Cbc0038I Pass  37: suminf.    3.76928 (18) obj. 5.90814 iterations 16
Cbc0038I No solution found this major pass
Cbc0038I Before mini branch and bound, 1 integers at bound fixed and 0 continuous
Cbc0038I Full problem 138 rows 40 columns, reduced to 137 rows 39 columns - 4 fixed gives 45, 15 - ok now
Cbc0038I Mini branch and bound did not improve solution (0.03 seconds)
Cbc0038I After 0.03 seconds - Feasibility pump exiting with objective of 7 - took 0.02 seconds
Cbc0012I Integer solution of 7 found by feasibility pump after 0 iterations and 0 nodes (0.03 seconds)
Cbc0038I Full problem 138 rows 40 columns, reduced to 94 rows 22 columns
Cbc0031I 11 added rows had average density of 40
Cbc0013I At root node, 11 cuts changed objective from 5.0804598 to 5.4952142 in 100 passes
Cbc0014I Cut generator 0 (Probing) - 0 row cuts average 0.0 elements, 0 column cuts (0 active)  in 0.014 seconds - new frequency is -100
Cbc0014I Cut generator 1 (Gomory) - 725 row cuts average 40.0 elements, 0 column cuts (0 active)  in 0.015 seconds - new frequency is 1
Cbc0014I Cut generator 2 (Knapsack) - 0 row cuts average 0.0 elements, 0 column cuts (0 active)  in 0.010 seconds - new frequency is -100
Cbc0014I Cut generator 3 (Clique) - 0 row cuts average 0.0 elements, 0 column cuts (0 active)  in 0.003 seconds - new frequency is -100
Cbc0014I Cut generator 4 (MixedIntegerRounding2) - 2 row cuts average 39.5 elements, 0 column cuts (0 active)  in 0.011 seconds - new frequency is -100
Cbc0014I Cut generator 5 (FlowCover) - 0 row cuts average 0.0 elements, 0 column cuts (0 active)  in 0.001 seconds - new frequency is -100
Cbc0014I Cut generator 7 (ZeroHalf) - 1 row cuts average 16.0 elements, 0 column cuts (0 active)  in 0.000 seconds - new frequency is -100
Cbc0010I After 0 nodes, 1 on tree, 7 best solution, best possible 5.4952142 (0.14 seconds)
Cbc0001I Search completed - best objective 7, took 4250 iterations and 10 nodes (0.19 seconds)
Cbc0032I Strong branching done 204 times (4544 iterations), fathomed 1 nodes and fixed 1 variables
Cbc0035I Maximum depth 4, 16 variables fixed on reduced cost
Cuts at root node changed objective from 5.08046 to 5.49521
Probing was tried 100 times and created 0 cuts of which 0 were active after adding rounds of cuts (0.014 seconds)
Gomory was tried 141 times and created 1078 cuts of which 0 were active after adding rounds of cuts (0.020 seconds)
Knapsack was tried 100 times and created 0 cuts of which 0 were active after adding rounds of cuts (0.010 seconds)
Clique was tried 100 times and created 0 cuts of which 0 were active after adding rounds of cuts (0.003 seconds)
MixedIntegerRounding2 was tried 100 times and created 2 cuts of which 0 were active after adding rounds of cuts (0.011 seconds)
FlowCover was tried 100 times and created 0 cuts of which 0 were active after adding rounds of cuts (0.001 seconds)
TwoMirCuts was tried 1 times and created 0 cuts of which 0 were active after adding rounds of cuts (0.000 seconds)
ZeroHalf was tried 1 times and created 1 cuts of which 0 were active after adding rounds of cuts (0.000 seconds)

Result - Optimal solution found

Objective value:                7.00000000
Enumerated nodes:               10
Total iterations:               4250
Time (CPU seconds):             0.19
Time (Wallclock seconds):       0.19

Total time (CPU seconds):       0.19   (Wallclock seconds):       0.19

